; benchmark generated from python API
(set-info :status unknown)
(declare-fun L_4 () Real)
(declare-fun A_4 () Real)
(declare-fun S_4 () Real)
(declare-fun A_3 () Real)
(declare-fun L_3 () Real)
(declare-fun S_3 () Real)
(declare-fun S_2 () Real)
(declare-fun L_2 () Real)
(declare-fun A_2 () Real)
(declare-fun S_1 () Real)
(declare-fun A_1 () Real)
(declare-fun L_1 () Real)
(declare-fun S_0 () Real)
(declare-fun L_0 () Real)
(declare-fun A_0 () Real)
(assert
 (let (($x71878 (<= (+ L_4 (* (- 1.0) L_3)) 0.0)))
 (let ((?x2106 (* (- 2.0) L_1)))
 (let ((?x1779 (* 2.0 L_4)))
 (let ((?x1778 (* (- 2.0) A_4)))
 (let ((?x2147 (* (- 2.0) S_1)))
 (let ((?x1382 (* 2.0 A_3)))
 (let ((?x1380 (* (- 2.0) L_3)))
 (let ((?x749 (* (- 1.0) L_1)))
 (let ((?x802 (* (- 1.0) A_4)))
 (let ((?x1401 (* (- 1.0) S_1)))
 (let ((?x4216 (* 2.0 S_2)))
 (let (($x14462 (<= (+ L_0 ?x4216 ?x1401 ?x802 L_4 ?x749) 0.0)))
 (let (($x177338 (or $x14462 (<= (+ ?x1380 ?x1382 A_0 L_0 S_2 ?x2147 ?x1778 ?x1779 ?x2106) 0.0) $x71878)))
 (let ((?x8295 (* (- 3.0) A_0)))
 (let ((?x5085 (* 3.0 L_0)))
 (let ((?x1953 (* 3.0 A_1)))
 (let ((?x2116 (* (- 3.0) L_1)))
 (let (($x139050 (not (<= (+ ?x2116 ?x1953 ?x5085 ?x8295) 15.0))))
 (let ((?x770 (* (- 1.0) A_3)))
 (let ((?x761 (* (- 1.0) A_2)))
 (let ((?x738 (* (- 1.0) L_4)))
 (let (($x2819 (<= (+ ?x749 A_1 A_4 ?x738 L_2 L_3 ?x761 ?x770) 0.0)))
 (let (($x2758 (not $x2819)))
 (let ((?x1396 (* 2.0 A_2)))
 (let ((?x752 (* (- 1.0) A_1)))
 (let ((?x1394 (* (- 2.0) L_2)))
 (let (($x2159 (<= (+ L_1 ?x1394 L_3 ?x752 ?x1396 ?x770) 0.0)))
 (let (($x2073 (not $x2159)))
 (let (($x162704 (or $x2073 $x2758 $x71878 (not (<= (+ A_4 ?x738 L_2 ?x761) 10.0)) $x139050)))
 (let (($x141970 (not (<= 0.0 (+ (* (- 1.0) L_3) A_3 L_1 ?x752 S_2 ?x802 L_4)))))
 (let ((?x22783 (* (/ 1.0 2.0) A_4)))
 (let ((?x22010 (* (- (/ 1.0 2.0)) L_4)))
 (let ((?x22183 (* (- (/ 1.0 2.0)) L_2)))
 (let ((?x22019 (* (/ 1.0 2.0) A_2)))
 (let (($x132033 (not (<= 0.0 (+ S_2 L_2 ?x761)))))
 (let (($x377790 (or $x71878 $x132033 (not (<= 0.0 (+ ?x22019 ?x22183 L_3 ?x22010 ?x770 ?x22783))) $x141970)))
 (let (($x140339 (not (<= 0.0 (+ S_1 L_1 ?x752)))))
 (let ((?x2169 (* (- 2.0) A_1)))
 (let ((?x758 (* (- 1.0) L_2)))
 (let ((?x2168 (* 2.0 L_1)))
 (let ((?x740 (* (- 1.0) L_0)))
 (let (($x132995 (<= 0.0 (+ A_0 ?x740 ?x2168 ?x758 ?x2169 A_2))))
 (let (($x132996 (not $x132995)))
 (let ((?x2112 (* (- 2.0) L_0)))
 (let ((?x1400 (* 2.0 A_0)))
 (let ((?x767 (* (- 1.0) L_3)))
 (let (($x25696 (not (= (+ L_3 ?x770 A_0 ?x740 A_4 ?x738 L_1 ?x752) 0.0))))
 (let (($x381269 (or $x25696 (not (<= (+ ?x767 A_3 ?x1400 ?x2112 ?x2147 L_1 ?x752) 0.0)) $x71878 $x132996 $x140339)))
 (let (($x128918 (<= 0.0 (+ ?x1400 ?x2112 (* 3.0 L_1) ?x767 (* (- 3.0) A_1) A_3))))
 (let (($x380110 (or $x25696 (not (<= (+ ?x767 A_3 ?x761 L_2 A_0 ?x740 ?x1401) 0.0)) $x71878 $x128918 $x140339)))
 (let ((?x69850 (* (- (/ 1.0 3.0)) A_4)))
 (let ((?x69886 (* (/ 1.0 3.0) L_4)))
 (let ((?x19051 (* (/ 1.0 3.0) A_1)))
 (let ((?x14533 (* (- (/ 1.0 3.0)) L_1)))
 (let (($x133920 (<= (+ A_2 ?x758 (* (- 1.0) A_0) L_0 ?x802 L_4 ?x749 A_1) (- 5.0))))
 (let (($x2817 (<= (+ ?x749 A_1 ?x802 L_4 L_0 ?x767 (* (- 1.0) A_0) A_3) 0.0)))
 (let (($x27834 (<= (+ ?x8295 ?x5085 (* 3.0 S_2) ?x1778 ?x1779 ?x2106 (* 2.0 A_1)) 0.0)))
 (let ((?x2038 (* 2.0 A_1)))
 (let ((?x1961 (* 2.0 L_0)))
 (let ((?x1406 (* (- 2.0) A_0)))
 (let (($x11118 (<= (+ S_4 A_0 ?x740 (* 2.0 L_2) (* (- 2.0) A_2)) 0.0)))
 (let (($x375228 (or $x2817 $x11118 (<= (+ A_2 ?x758 S_4 ?x1406 ?x1961 ?x1778 ?x1779 ?x2106 ?x2038) 0.0) $x71878)))
 (let (($x135054 (<= 0.0 (+ (* (/ 1.0 2.0) S_4) (* (/ 1.0 2.0) A_0) (* (- (/ 1.0 2.0)) L_0) L_2 ?x761))))
 (let (($x34076 (<= (+ (* 3.0 A_2) (* (- 3.0) L_2) ?x8295 ?x5085 ?x1778 ?x1779 ?x2106 ?x2038) 0.0)))
 (let ((?x4215 (* (- 4.0) L_1)))
 (let ((?x1720 (* 4.0 L_4)))
 (let ((?x1752 (* (- 4.0) A_4)))
 (let ((?x8341 (* 3.0 S_4)))
 (let (($x388068 (or $x2817 (<= (+ ?x8341 ?x8295 ?x5085 ?x1752 ?x1720 ?x4215 (* 4.0 A_1)) 0.0) $x71878 $x135054)))
 (let (($x129822 (not (<= 0.0 (+ S_3 L_3 ?x770)))))
 (let (($x129138 (not (<= 0.0 (+ (* (- 1.0) A_0) S_0 L_1)))))
 (let (($x3055 (<= (+ ?x749 A_1 L_0 ?x758 L_3 (* (- 1.0) A_0) A_2 ?x770) 0.0)))
 (let (($x3010 (not $x3055)))
 (let (($x591 (= ?x749 ?x740)))
 (let (($x15563 (<= (+ ?x767 A_3 ?x752 S_2 ?x1401 ?x802 L_4 A_0) 0.0)))
 (let (($x1419 (<= (+ A_4 ?x738 ?x758 (* 2.0 L_3) A_2 (* (- 2.0) A_3)) 0.0)))
 (let (($x1351 (not $x1419)))
 (let (($x130359 (not (<= (+ ?x767 A_3 ?x761 L_2) 5.0))))
 (let ((?x2133 (* (- 3.0) A_1)))
 (let ((?x2130 (* 3.0 L_1)))
 (let ((?x5066 (* (- 3.0) L_0)))
 (let ((?x8348 (* 3.0 A_0)))
 (let (($x120236 (<= (+ ?x8348 ?x5066 ?x2130 ?x2133) (- 15.0))))
 (let (($x384472 (or $x2817 (<= (+ ?x8295 ?x5085 (* 3.0 S_1) ?x802 L_4 ?x749 A_1) 0.0) (<= (+ A_2 ?x758 ?x1406 ?x1961 S_1 ?x802 L_4 ?x749 A_1) 0.0) $x71878)))
 (let (($x129633 (<= 0.0 (+ S_4 L_3 ?x770))))
 (let ((?x5577 (* (- (/ 1.0 3.0)) L_0)))
 (let ((?x5685 (* (- (/ 2.0 3.0)) A_0)))
 (let (($x31096 (<= (+ (* (- (/ 4.0 3.0)) S_4) ?x5685 ?x5577 S_0 L_1 ?x738 A_4) 0.0)))
 (let ((?x789 (* (- 1.0) A_0)))
 (let ((?x2131 (* (- 2.0) S_4)))
 (let (($x30797 (<= (+ A_2 ?x758 ?x2131 ?x789 S_0 L_1 ?x738 A_4) 0.0)))
 (let (($x21844 (<= (+ (* (- (/ 3.0 2.0)) L_1) (* (/ 3.0 2.0) A_1) (* (- (/ 1.0 2.0)) S_4) L_0 ?x789) 0.0)))
 (let (($x1431 (<= (+ A_0 ?x740 L_1 L_2 ?x767 ?x752 ?x761 A_3) 0.0)))
 (let (($x130931 (<= (+ ?x767 A_3 ?x749 ?x1401 ?x802 L_4 A_0) (- 5.0))))
 (let (($x370429 (or $x71878 (<= (+ ?x2106 A_1 ?x1401 ?x802 L_4 A_0) (- 15.0)) $x130931 (<= (+ ?x1400 ?x740 ?x1401 ?x802 L_4 ?x749) (- 20.0)) (<= (+ A_2 ?x758 ?x749 ?x1401 ?x802 L_4 A_0) (- 10.0)))))
 (let (($x14399 (<= (+ ?x749 S_2 ?x1401 L_2 A_0 ?x761) 0.0)))
 (let (($x191804 (or $x14399 (<= (+ ?x752 ?x4216 ?x1401 L_3 A_0 ?x770) 0.0) (not (<= (+ L_1 ?x752 ?x4216 ?x1401 A_0 ?x770) 0.0)))))
 (let (($x66605 (not $x71878)))
 (let (($x47820 (<= (+ L_1 ?x752 ?x4216 ?x1401 A_0 ?x770) 0.0)))
 (let (($x653 (= ?x738 ?x749)))
 (let (($x27462 (<= (+ (* (- 1.0) S_4) A_0 ?x740 A_4 ?x738 L_1 ?x752) 0.0)))
 (let ((?x1301 (* 3.0 A_3)))
 (let ((?x1333 (* (- 3.0) A_2)))
 (let ((?x1300 (* (- 3.0) L_3)))
 (let ((?x1372 (* 3.0 L_2)))
 (let ((?x1364 (* (- 1.0) S_4)))
 (let (($x1340 (<= (+ ?x1364 A_0 ?x740 ?x1372 ?x1300 ?x1333 ?x1301) 0.0)))
 (let (($x1251 (not $x1431)))
 (let (($x389878 (or $x2758 (<= (+ ?x2168 ?x2169 (* 3.0 S_2) ?x802 L_4) 0.0) $x71878 $x132033)))
 (let (($x6489 (<= (+ A_2 ?x758 L_1 ?x752 ?x802 L_4 ?x767 A_3) 0.0)))
 (let ((?x1387 (* 3.0 A_2)))
 (let ((?x1385 (* (- 3.0) L_2)))
 (let ((?x4262 (* 4.0 L_1)))
 (let (($x4265 (<= (+ ?x4262 ?x2169 (* 2.0 S_0) ?x802 L_4 ?x1385 ?x1406 ?x1387) 0.0)))
 (let ((?x12435 (* (/ 3.0 2.0) S_3)))
 (let ((?x12434 (* (- (/ 1.0 2.0)) A_1)))
 (let ((?x12431 (* (- (/ 1.0 2.0)) L_1)))
 (let (($x65808 (<= (+ ?x761 L_2 (* 2.0 S_3) A_0 ?x1401 ?x802 L_4 ?x749) 0.0)))
 (let (($x6426 (<= (+ A_2 ?x758 (* (- 1.0) S_3)) 0.0)))
 (let (($x177596 (or $x591 $x6426 (<= (+ A_0 ?x2112 S_0 ?x767 ?x4262 ?x2133 A_3) 0.0) (<= (+ A_1 (* (- 2.0) S_3) S_0 ?x767 ?x789 A_3) 0.0) $x132996)))
 (let (($x382338 (or (<= (+ L_1 ?x2169 (* 3.0 S_2) ?x1401 ?x802 L_4 A_0) 0.0) $x15563 $x71878)))
 (let ((?x12388 (* (/ 1.0 2.0) A_1)))
 (let ((?x12438 (* (/ 1.0 2.0) L_1)))
 (let (($x177066 (or $x591 (<= (+ ?x12438 ?x12388 (* (- (/ 3.0 2.0)) S_4) S_0 ?x738 ?x789 A_4) 0.0) $x30797 $x31096 $x129633 $x132996)))
 (let (($x134006 (<= (+ A_2 ?x758 ?x749 ?x1401 L_3 A_0 ?x770) (- 5.0))))
 (let (($x130280 (<= (+ ?x1400 ?x740 ?x1401 L_3 ?x749 ?x770) (- 15.0))))
 (let (($x647 (= ?x767 ?x758)))
 (let (($x391124 (or $x647 $x130280 (<= (+ ?x2106 A_1 ?x1401 L_3 A_0 ?x770) (- 10.0)) $x134006)))
 (let (($x25782 (<= (+ ?x22019 ?x22183 (* (/ 1.0 2.0) S_4) ?x749 ?x1401 L_3 A_0 ?x770) 0.0)))
 (let (($x19240 (<= (+ (* (- (/ 4.0 3.0)) L_1) ?x19051 (* (/ 2.0 3.0) S_4) ?x1401 L_3 A_0 ?x770) 0.0)))
 (let ((?x8226 (* (- (/ 1.0 4.0)) L_0)))
 (let ((?x6350 (* (/ 5.0 4.0) A_0)))
 (let ((?x6356 (* (/ 3.0 4.0) S_4)))
 (let (($x8657 (<= (+ ?x6356 ?x6350 ?x8226 ?x1401 L_3 ?x749 ?x770) 0.0)))
 (let (($x40571 (<= (+ ?x22019 ?x22183 (* (/ 1.0 2.0) S_4) ?x1401 A_0 ?x770) 0.0)))
 (let (($x41843 (not $x40571)))
 (let (($x41015 (<= (+ ?x22019 (* (- (/ 3.0 2.0)) L_2) (* (/ 1.0 2.0) S_4) ?x1401 L_3 A_0 ?x770) 0.0)))
 (let ((?x22530 (* (/ 1.0 3.0) S_4)))
 (let ((?x19067 (* (/ 2.0 3.0) A_1)))
 (let ((?x9947 (* (/ 1.0 3.0) L_1)))
 (let ((?x8986 (* (- (/ 1.0 2.0)) L_0)))
 (let ((?x9007 (* (/ 3.0 2.0) A_0)))
 (let ((?x21657 (* (/ 1.0 2.0) S_4)))
 (let (($x39020 (<= (+ ?x21657 ?x9007 ?x8986 ?x1401 L_2 ?x749 ?x761) 0.0)))
 (let (($x661 (= ?x758 ?x749)))
 (let (($x389201 (or $x661 (<= (+ (* (- (/ 5.0 3.0)) L_1) ?x19067 ?x22530 ?x1401 L_2 A_0 ?x761) 0.0) $x39020)))
 (let ((?x5682 (* (/ 4.0 3.0) S_3)))
 (let ((?x5689 (* (/ 1.0 3.0) L_0)))
 (let ((?x4602 (* (/ 2.0 3.0) A_0)))
 (let (($x80146 (<= (+ (* (/ 1.0 2.0) A_0) (* (/ 1.0 2.0) L_0) (* (/ 3.0 2.0) S_2) ?x1401 ?x770) 0.0)))
 (let ((?x9002 (* (/ 3.0 2.0) S_2)))
 (let ((?x9003 (* (/ 1.0 2.0) L_0)))
 (let ((?x8962 (* (/ 1.0 2.0) A_0)))
 (let (($x1425 (<= (+ ?x749 (* 2.0 L_2) ?x767 A_1 (* (- 2.0) A_2) A_3) 0.0)))
 (let (($x51263 (<= (+ (* (- (/ 1.0 2.0)) A_2) (* (/ 1.0 2.0) L_2) ?x21657 A_0 ?x740 L_1 ?x752) 0.0)))
 (let (($x385716 (or (<= (+ (* (- (/ 2.0 3.0)) L_1) ?x19067 ?x22530 L_2 ?x761) 0.0) $x41015 $x41843 $x51263)))
 (let ((?x1381 (* (- 2.0) A_2)))
 (let ((?x1378 (* 2.0 L_2)))
 (let ((?x9004 (* (- (/ 1.0 2.0)) A_0)))
 (let (($x385769 (or (not (<= (+ ?x21657 ?x9004 ?x9003 ?x2038 ?x1381) 0.0)) (<= (+ ?x21657 ?x9004 ?x9003 ?x1378 ?x2106 ?x2038 ?x1381) 0.0))))
 (let (($x376089 (or (<= (+ ?x9947 ?x19067 ?x22530 ?x761) 0.0) $x25782 (<= (+ L_3 ?x770 S_4 ?x1400 ?x740 ?x1401 ?x752) 0.0) (not (<= (+ ?x770 S_4 ?x1400 ?x740 ?x1401 L_1 ?x752) 0.0)))))
 (let ((?x1397 (* (- 2.0) A_3)))
 (let ((?x1395 (* 2.0 L_3)))
 (let (($x19941 (<= (+ ?x6356 ?x6350 ?x8226 ?x1401 ?x770) 0.0)))
 (let (($x372961 (or $x19941 (<= (+ ?x1387 ?x1385 A_0 L_0 ?x2147 ?x1395 ?x2106 ?x1397) 0.0) $x41843 $x132995)))
 (let (($x385666 (or (not $x19941) (<= (+ ?x6356 ?x6350 ?x8226 ?x1401 L_3 ?x758 ?x770) 0.0) $x25782 $x132995)))
 (let (($x33036 (<= (+ ?x1395 ?x1397 (* 2.0 S_4) ?x1400 ?x740 ?x1401 L_2 ?x749 ?x761) 0.0)))
 (let (($x386532 (or $x661 (<= (+ L_3 ?x770 S_4 ?x2106 A_1 ?x1401 L_2 A_0 ?x761) 0.0) $x33036)))
 (let (($x14913 (not (<= (+ A_2 ?x758 ?x2168 ?x2169 ?x740 A_0) 0.0))))
 (let (($x20796 (<= (+ ?x22019 ?x22183 ?x789 L_0 S_1 (* (/ 1.0 2.0) L_4) (* (- (/ 1.0 2.0)) A_4)) 0.0)))
 (let (($x1805 (<= (+ A_0 ?x740 A_4 ?x738 L_1 L_3 ?x752 ?x770) 0.0)))
 (let (($x1738 (not $x1805)))
 (let (($x7072 (<= (+ ?x789 L_0 S_2 ?x802 L_4 ?x758 A_2) 0.0)))
 (let (($x7259 (<= (+ S_4 ?x789 L_0 ?x1778 ?x1779 ?x1394 ?x1396) 0.0)))
 (let (($x5717 (<= (+ (* (- (/ 4.0 3.0)) A_0) (* (/ 4.0 3.0) L_0) ?x5682 ?x1778 ?x1779 ?x1394 ?x1396) 0.0)))
 (let (($x5105 (<= (+ ?x1406 L_0 S_0 ?x802 L_4 L_1 ?x1394 ?x1396) 0.0)))
 (let ((?x71394 (* (- (/ 1.0 3.0)) L_4)))
 (let ((?x72462 (* (/ 1.0 3.0) A_4)))
 (let ((?x19066 (* (- (/ 2.0 3.0)) L_1)))
 (let (($x144093 (<= 0.0 (+ ?x19066 ?x19067 ?x72462 ?x71394 L_2 ?x761))))
 (let (($x29505 (<= (+ ?x1380 ?x1382 L_0 ?x1401 ?x1778 ?x1779 ?x749 ?x758 A_2) 0.0)))
 (let (($x64244 (<= (+ ?x761 L_2 A_0 (* (- 2.0) S_2) ?x2112 S_0 A_4 ?x738 L_1) 0.0)))
 (let (($x2781 (<= (+ ?x749 A_1 (* (- 1.0) S_2)) 0.0)))
 (let (($x188757 (or $x591 $x2781 (not (<= (+ ?x789 (* (- 1.0) S_2) S_0 A_1) 0.0)) $x64244)))
 (let (($x7370 (<= (+ ?x1400 ?x2112 A_4 ?x738 ?x2168 L_2 ?x2169 ?x761) 0.0)))
 (let (($x7201 (not $x7370)))
 (let (($x377708 (or $x591 $x7201 (<= (+ ?x1387 ?x1385 ?x2131 ?x789 L_0) 0.0) $x27462 $x31096 $x129633)))
 (let (($x5113 (<= (+ ?x1400 ?x5066 S_0 A_4 ?x738 (* 5.0 L_1) (* (- 4.0) A_1)) 0.0)))
 (let (($x371952 (or $x591 $x5113 $x6426 (<= (+ ?x749 ?x2038 (* (- 3.0) S_3) S_0 A_4 ?x738 ?x789) 0.0) $x132996)))
 (let (($x115402 (or $x6426 (<= (+ L_3 ?x770 S_4 ?x749 A_1 (* (- 1.0) S_3)) 0.0) (<= (+ L_3 ?x770 S_4 ?x8962 (* (- (/ 1.0 2.0)) S_3) ?x8986) 0.0))))
 (let (($x381503 (or $x6489 $x71878 (<= (+ ?x22019 ?x22183 (* (/ 1.0 2.0) L_4) (* (- (/ 1.0 2.0)) A_4)) (- 5.0)))))
 (let (($x377420 (or (<= (+ ?x2130 ?x2133 (* (- 3.0) S_4) (* 6.0 S_2)) 0.0) $x129633)))
 (let (($x58370 (<= (+ ?x767 A_3 ?x9004 (* (- (/ 1.0 2.0)) S_3) ?x9003 ?x802 L_4 ?x758 A_2) 0.0)))
 (let (($x130871 (<= (+ ?x2106 A_1 ?x1401 L_2 A_0 ?x761) (- 5.0))))
 (let (($x383494 (or $x130871 (<= (+ ?x1400 ?x740 ?x1401 L_2 ?x749 ?x761) (- 10.0)) (not (<= (+ ?x1400 ?x740 ?x1401 ?x761) (- 10.0))))))
 (let (($x37537 (<= (+ A_4 ?x738 ?x9007 (* (- (/ 3.0 2.0)) S_3) (* (- (/ 3.0 2.0)) L_0) L_1 ?x752) 0.0)))
 (let (($x15257 (<= (+ ?x2106 ?x2038 (* (- 1.0) S_3) L_0 ?x789) 0.0)))
 (let (($x149782 (or $x591 (<= (+ ?x740 (* (- 2.0) S_3) S_0 A_4 ?x738 L_1) 0.0) $x6426 $x15257 $x37537)))
 (let (($x657 (= ?x738 ?x767)))
 (let (($x123456 (not $x657)))
 (let (($x34007 (not (= (+ ?x761 L_2 A_0 ?x740 L_1 ?x767 ?x752 A_3) 0.0))))
 (let (($x388286 (or $x653 $x34007 (not (<= (+ A_2 ?x758 A_0 ?x740 ?x1401 L_1 ?x752) 0.0)) $x123456 $x140339)))
 (let (($x61074 (<= (+ ?x5685 (* (/ 2.0 3.0) L_0) (* (/ 2.0 3.0) S_3) ?x1378 ?x2106 ?x2038 ?x1381) 0.0)))
 (let (($x15841 (<= (+ ?x1380 A_3 L_2 ?x749 A_1 ?x802 L_4 L_0 ?x789) 0.0)))
 (let (($x29489 (<= (+ ?x767 A_3 (* (- 1.0) S_2) ?x802 L_4 ?x758 A_2) 0.0)))
 (let (($x62798 (<= (+ L_3 ?x770 ?x9004 (* (- (/ 1.0 2.0)) S_3) ?x8986 S_0 L_1 ?x738 A_4) 0.0)))
 (let ((?x5703 (* (/ 4.0 3.0) L_0)))
 (let ((?x5702 (* (- (/ 4.0 3.0)) A_0)))
 (let ((?x52046 (* (- (/ 2.0 3.0)) A_3)))
 (let ((?x50389 (* (/ 2.0 3.0) L_3)))
 (let (($x378728 (or $x653 $x34007 (<= (+ ?x50389 ?x52046 ?x5702 ?x5703 (* 2.0 S_1)) 0.0) $x123456 $x140339)))
 (let (($x61025 (<= (+ (* (/ 4.0 3.0) A_0) ?x5577 (* (/ 2.0 3.0) S_3) ?x1401 L_2 ?x749 ?x761) 0.0)))
 (let (($x32417 (<= (+ (* (- (/ 3.0 2.0)) L_1) ?x12388 (* (/ 1.0 2.0) S_3) ?x1401 L_2 A_0 ?x761) 0.0)))
 (let (($x11254 (<= (+ ?x761 L_2 L_1 S_0 ?x802 L_4 ?x1380 ?x789 ?x1382) 0.0)))
 (let (($x15726 (<= (+ L_3 ?x770 A_1 (* (- 1.0) S_3) S_0 A_4 ?x738 ?x789) 0.0)))
 (let (($x148728 (or $x591 $x6426 (<= (+ L_3 ?x770 ?x2168 ?x752 S_0 A_4 ?x738 ?x740) 0.0) $x15726 $x132996)))
 (let ((?x1388 (* (- 3.0) A_3)))
 (let ((?x1386 (* 3.0 L_3)))
 (let ((?x1742 (* (- 2.0) L_4)))
 (let ((?x1740 (* 2.0 A_4)))
 (let (($x122935 (<= 0.0 (+ ?x749 A_1 ?x1740 ?x1742 ?x1386 ?x1388))))
 (let (($x140660 (or $x591 (<= (+ ?x2168 ?x752 S_0 ?x1778 ?x1779 ?x1300 ?x789 ?x1301) 0.0) $x71878 $x122935)))
 (let (($x21653 (<= (+ (* (/ 3.0 2.0) L_1) ?x12434 (* (- (/ 1.0 2.0)) S_4) S_0 ?x758 ?x789 A_2) 0.0)))
 (let (($x197370 (or $x591 (<= (+ (* (- (/ 2.0 3.0)) S_4) ?x5702 ?x5689 S_0 L_1 ?x758 A_2) 0.0) (<= (+ ?x1364 A_0 ?x740 ?x2130 ?x1385 ?x2133 ?x1387) 0.0) $x129633)))
 (let (($x161821 (or (<= (+ A_2 ?x758 ?x1364 ?x789 L_0 S_1) 0.0) (<= (+ ?x1364 ?x1406 ?x1961 (* 3.0 S_1)) 0.0) $x129633)))
 (let (($x33314 (<= (+ ?x761 L_2 ?x1400 (* (- 1.0) S_2) ?x2112 A_4 ?x738 L_1 ?x752) 0.0)))
 (let (($x28389 (<= (+ ?x789 (* (- 1.0) S_2) S_0 A_1) 0.0)))
 (let (($x1731 (<= (+ ?x789 L_0 S_3 (* (- 3.0) A_4) (* 3.0 L_4) ?x1300 ?x1301) 0.0)))
 (let (($x134552 (or $x591 $x661 $x1805 $x2819 (<= (+ ?x1395 ?x1397 ?x740 S_0 ?x1740 ?x1742 L_1 L_2 ?x761) 0.0))))
 (let (($x374675 (or $x661 $x2819 (<= (+ L_3 ?x770 A_0 ?x740 A_4 ?x738 L_2 ?x761) (- 5.0)))))
 (let (($x183407 (or $x591 (<= (+ A_0 ?x740 (* (- 1.0) S_3) L_1 ?x767 ?x752 A_3) 0.0) $x6426 $x15257 (<= (+ ?x9004 ?x8986 (* (- (/ 3.0 2.0)) S_3) S_0 L_1 ?x767 A_3) 0.0))))
 (let (($x162925 (or $x647 $x3055 $x66605 (<= (+ ?x12431 (* (/ 1.0 2.0) L_4) ?x12388 (* (- (/ 1.0 2.0)) A_3)) (- 5.0)))))
 (let (($x22222 (<= (+ ?x761 L_2 (* (- 1.0) S_2) ?x740 S_0 ?x767 L_1 A_3) 0.0)))
 (let (($x1393 (<= (+ A_0 ?x740 (* (- 1.0) S_2) L_2 ?x767 ?x761 A_3) 0.0)))
 (let (($x649 (= ?x767 ?x749)))
 (let (($x163187 (or $x649 $x1393 (<= (+ A_0 ?x740 (* (- 1.0) S_2) A_4 ?x738 L_3 ?x770) 0.0) $x2781)))
 (let (($x164237 (or $x661 (<= (+ ?x2106 ?x2038 (* (- 2.0) S_3) A_4 ?x738 L_2 ?x761) 0.0) (<= (+ A_0 ?x740 (* (- 1.0) S_3) A_4 ?x738 L_2 ?x761) 0.0))))
 (let (($x162104 (or $x661 (<= (+ ?x749 A_1 ?x1364 A_4 ?x738 L_2 ?x761) 0.0) $x7370)))
 (let ((?x1735 (* 3.0 L_4)))
 (let ((?x1755 (* (- 3.0) A_4)))
 (let ((?x4259 (* 2.0 S_4)))
 (let (($x158109 (or $x661 $x2819 (<= (+ ?x1395 ?x1397 S_4 A_0 ?x740 A_4 ?x738 L_2 ?x761) 0.0))))
 (let (($x62648 (<= (+ L_3 ?x770 (* (- 1.0) S_2) ?x740 S_0 A_4 ?x738 L_1) 0.0)))
 (let ((?x1374 (* (- 4.0) A_3)))
 (let ((?x1261 (* 4.0 L_3)))
 (let ((?x1776 (* (- 3.0) L_4)))
 (let ((?x1774 (* 3.0 A_4)))
 (let (($x1783 (<= (+ ?x1400 ?x740 ?x1401 ?x1774 ?x1776 ?x749 ?x1261 ?x1374) 0.0)))
 (let (($x165045 (or $x1783 $x2817 (not (<= (+ ?x1380 A_3 ?x2168 ?x752 ?x802 L_4 ?x758 A_2) 0.0)) (<= (+ ?x767 A_3 ?x2168 ?x752 ?x802 L_4 ?x1394 A_2) 0.0))))
 (let (($x3608 (<= (+ ?x749 A_1 ?x1401 ?x1740 ?x1742 ?x758 ?x1386 A_0 ?x1388) 0.0)))
 (let (($x171290 (or $x3608 (<= (+ ?x1400 ?x740 ?x1401 ?x1774 ?x1776 ?x758 ?x1261 ?x1374) 0.0) (not (<= (+ ?x1400 ?x740 ?x1401 ?x1774 ?x1776 ?x1386 ?x1374) 0.0)) (<= (+ ?x1380 A_3 L_1 ?x752 ?x802 L_4 A_2) 0.0))))
 (let (($x2775 (not $x2817)))
 (let (($x380307 (or $x647 $x2775 (<= (+ ?x749 A_1 (* (- 1.0) S_3) A_4 ?x738 L_3 ?x770) 0.0) $x6426)))
 (let (($x6455 (<= (+ A_2 ?x758 ?x1364 A_4 ?x738 L_3 ?x770) 0.0)))
 (let (($x381972 (or $x647 $x2775 (<= (+ ?x749 A_1 ?x1364 ?x1740 ?x1742 ?x1395 ?x1397) 0.0) $x6455)))
 (let (($x9644 (<= (+ ?x1406 L_0 S_0 ?x767 L_1 ?x1387 ?x1397) 0.0)))
 (let (($x655 (= ?x738 ?x758)))
 (let (($x372553 (or $x591 (<= (+ ?x1406 L_0 S_0 L_1 ?x1385 ?x1395 ?x1387 ?x1397) 0.0) $x2159 (not $x9644))))
 (let (($x71011 (<= (+ ?x789 L_0 S_1 ?x12431 (* (/ 1.0 2.0) L_4) ?x12388 (* (- (/ 1.0 2.0)) A_3)) 0.0)))
 (let (($x1799 (<= (+ ?x1740 ?x1742 ?x749 ?x1386 A_1 ?x1388) 0.0)))
 (let (($x374391 (or $x1799 (not (<= (+ A_2 ?x758 ?x789 L_0 A_1 ?x770) 0.0)) (<= (+ A_2 ?x1394 ?x789 L_0 L_3 A_1 ?x770) 0.0))))
 (let (($x11413 (<= (+ A_2 ?x758 ?x749 ?x1401 A_4 ?x738 ?x1395 A_0 ?x1397) 0.0)))
 (let (($x3705 (<= (+ ?x749 A_1 ?x1401 ?x1740 ?x1742 ?x1395 A_0 ?x1388) 0.0)))
 (let (($x381262 (or $x649 $x2073 $x2775 (not (<= (+ ?x802 L_4 L_2 ?x1380 ?x761 ?x1382) 0.0)))))
 (let ((?x1391 (* (- 1.0) S_2)))
 (let ((?x16954 (* (/ 1.0 2.0) L_2)))
 (let ((?x19528 (* (- (/ 1.0 2.0)) A_2)))
 (let (($x21242 (<= (+ ?x19528 ?x16954 A_0 ?x1391 ?x740 ?x22010 ?x22783) 0.0)))
 (let (($x127881 (<= (+ ?x802 L_4 ?x758 A_2) (- 10.0))))
 (let (($x16046 (<= (+ A_3 ?x749 A_1 ?x802 L_0 ?x789) 0.0)))
 (let (($x15180 (<= (+ L_1 (* (- 1.0) S_3) S_0 ?x758 ?x789 A_2) 0.0)))
 (let (($x191462 (or $x591 $x15180 (<= (+ ?x8962 (* (- (/ 1.0 2.0)) S_3) ?x8986 L_1 ?x758 ?x752 A_2) 0.0))))
 (let (($x4526 (<= (+ ?x6356 (* (- (/ 3.0 4.0)) A_0) (* (/ 3.0 4.0) L_0) ?x1387 ?x1388) 0.0)))
 (let (($x1376 (<= (+ S_4 ?x789 L_0 (* (- 4.0) L_2) ?x1261 (* 4.0 A_2) ?x1374) 0.0)))
 (let (($x177331 (or $x647 (<= (+ A_0 ?x740 (* (- 1.0) S_3) ?x1740 ?x1742 ?x1395 ?x1397) 0.0) $x6426 $x15257)))
 (let (($x39063 (<= (+ ?x1779 ?x1380) 0.0)))
 (let (($x613 (<= (+ ?x758 L_3 A_2 ?x770) (- 5.0))))
 (let (($x391597 (or $x661 $x2819 (<= (+ ?x1395 ?x1397 A_0 ?x740 S_2 ?x1740 ?x1742 ?x1378 ?x1381) 0.0))))
 (let (($x51982 (<= (+ ?x50389 ?x52046 A_4 ?x738 ?x4602 (* (- (/ 2.0 3.0)) L_0) L_2 ?x761) 0.0)))
 (let ((?x1437 (* 4.0 A_3)))
 (let ((?x1435 (* (- 4.0) L_3)))
 (let (($x160553 (or $x591 (<= (+ ?x1406 L_0 S_0 ?x1755 ?x1735 L_1 ?x1435 ?x1437) 0.0) $x39063 $x122935)))
 (let (($x139064 (or $x6426 (<= (+ ?x2116 ?x1953 (* (- 3.0) S_3)) (- 15.0)) (<= (+ ?x1400 ?x2112 (* (- 2.0) S_3)) (- 20.0)))))
 (let (($x180572 (or $x647 (<= (+ ?x1364 A_0 ?x740 ?x1774 ?x1776 ?x1386 ?x1388) 0.0) $x6455 $x21844)))
 (let (($x197688 (or $x661 (<= (+ ?x4215 ?x2038 ?x2147 A_4 ?x738 ?x1372 ?x1400 ?x1333) 0.0) (<= (+ ?x1400 ?x740 ?x1401 A_4 ?x738 ?x749 ?x1378 ?x1381) 0.0))))
 (let (($x188411 (or $x591 $x647 $x2159 (<= (+ ?x2168 ?x752 S_0 ?x1394 L_3 ?x789 ?x1396 ?x770) 0.0))))
 (let (($x1403 (<= (+ ?x1400 ?x740 ?x1401 ?x749 ?x1372 ?x1380 ?x1333 ?x1382) 0.0)))
 (let (($x386356 (or $x661 $x1403 (<= (+ ?x2106 A_1 ?x1401 ?x1378 ?x767 A_0 ?x1381 A_3) 0.0))))
 (let (($x377161 (or $x591 $x2781 (<= (+ ?x1400 ?x5066 (* (- 4.0) S_2) S_0 A_4 ?x738 L_1) 0.0) (<= (+ A_4 ?x738 ?x8348 (* (- 3.0) S_2) ?x5066 L_1 ?x752) 0.0))))
 (let (($x175044 (or $x647 (<= (+ ?x1406 ?x1961 (* 2.0 S_3) ?x2116 ?x1386 ?x1953 ?x1388) 0.0) $x3055)))
 (let (($x184757 (or $x661 (<= (+ A_0 ?x740 (* (- 1.0) S_3) ?x1378 ?x1380 ?x1381 ?x1382) 0.0) $x15257)))
 (let (($x188087 (or $x661 $x1431 (<= (+ ?x749 A_1 (* (- 1.0) S_3) L_2 ?x767 ?x761 A_3) 0.0))))
 (let (($x384602 (or $x591 $x2781 (<= (+ A_2 ?x758 A_0 ?x1391 ?x740 L_1 ?x752) 0.0) (<= (+ ?x740 (* (- 2.0) S_2) S_0 L_1 ?x758 A_2) 0.0))))
 (let (($x133201 (or (<= (+ A_2 ?x758 ?x1364) (- 5.0)) (<= (+ ?x1364 A_0 ?x740) (- 15.0)) $x129633 (<= (+ ?x2116 ?x1953 (* (- 3.0) S_4)) (- 30.0)))))
 (let (($x370054 (or $x6426 (<= (+ ?x8295 ?x5085 (* (- 3.0) S_3) (* 6.0 S_1)) 0.0))))
 (let (($x25118 (or $x2781 (<= (+ ?x761 L_2 S_4 ?x1400 (* (- 2.0) S_2) ?x2112) 0.0))))
 (let (($x8428 (<= (+ ?x1364 ?x789 S_0 ?x767 L_1 A_3) 0.0)))
 (let (($x381374 (or $x661 $x1403 (<= (+ ?x749 A_1 ?x1401 ?x1378 ?x1380 A_0 ?x1381 A_3) 0.0))))
 (let (($x4571 (<= (+ (* (/ 3.0 2.0) S_4) ?x9007 (* (- (/ 3.0 2.0)) L_0) (* (- 3.0) S_3)) 0.0)))
 (let (($x163654 (or $x591 (<= (+ ?x1400 ?x2112 (* (- 2.0) S_2) L_1 ?x767 ?x752 A_3) 0.0) $x2781 (<= (+ A_0 ?x2112 (* (- 3.0) S_2) S_0 ?x767 L_1 A_3) 0.0))))
 (let (($x6353 (<= (+ ?x6356 (* (/ 9.0 4.0) A_0) (* (- (/ 9.0 4.0)) L_0) (* (- 3.0) S_2)) 0.0)))
 (let (($x1405 (<= (+ ?x789 L_0 S_1 ?x758 L_3 A_2 ?x770) 0.0)))
 (let (($x5684 (<= (+ (* (/ 8.0 3.0) A_0) (* (- (/ 8.0 3.0)) L_0) ?x5682 (* (- 4.0) S_2)) 0.0)))
 (let (($x41 (>= A_1 A_0)))
 (let (($x42 (>= A_2 A_1)))
 (let (($x43 (>= A_3 A_2)))
 (let (($x44 (>= A_4 A_3)))
 (and (<= ?x749 ?x740) $x44 $x43 $x42 $x41 (<= ?x758 ?x749) (<= ?x767 ?x758) (<= ?x738 ?x767) (or $x657 (<= (+ L_1 ?x752 S_3 ?x1778 ?x1779 ?x1380 ?x1382) 0.0)) (or $x657 (<= (+ L_1 ?x752 S_4 ?x1755 ?x1735 ?x1300 ?x1301) 0.0)) (or $x661 $x1431 $x2073) (or (<= (+ ?x802 L_4 ?x767 A_3) (- 5.0)) $x657) (or $x661 $x1431 (<= (+ ?x749 A_1 ?x1364 ?x1378 ?x1380 ?x1381 ?x1382) 0.0)) (or $x657 $x661 (<= (+ ?x802 L_4 L_2 ?x1380 ?x761 ?x1382) 0.0)) (or $x2781 $x5684) (or $x649 $x1405 $x2073) (or $x657 (<= (+ ?x789 L_0 S_1 ?x802 L_4 ?x767 A_3) 0.0)) (or $x2781 $x6353) $x163654 (or $x4571 $x6426 (<= (+ ?x2106 ?x2038 S_4 (* (- 3.0) S_3)) 0.0)) (or $x657 (<= (+ S_4 ?x1401 ?x802 A_0) 0.0)) (or $x647 $x1419) (or $x647 $x129822) (or $x2781 (<= (+ ?x8348 ?x5066 (* (- 3.0) S_2)) (- 15.0))) (or $x657 (<= (+ ?x749 S_4 ?x1401 ?x802 L_4 A_0) 0.0)) (or $x661 $x14399) (or $x647 (<= (+ A_0 S_3 ?x1401 L_3 ?x749 ?x770) 0.0)) $x381374 (or $x661 $x1251 $x1340) (or $x591 (<= (+ ?x2131 ?x1400 ?x2112 ?x2130 ?x1300 ?x2133 ?x1301) 0.0) $x8428) $x25118 (or $x2781 (<= (+ ?x761 L_2 S_3 A_0 ?x1391 ?x740) 0.0)) (or $x661 $x132033) $x370054 (or $x591 $x1805 $x129138) $x133201 $x384602 $x188087 (or $x647 $x1799 $x6455) (or $x591 $x1431 $x8428) (or $x2781 (<= (+ ?x1395 ?x1397 ?x4259 ?x1400 ?x2112 (* (- 2.0) S_2)) 0.0)) (or $x657 (<= (+ ?x761 L_2 S_4 ?x1778 ?x1779 ?x1380 ?x1382) 0.0)) $x184757 (or $x647 (<= (+ ?x789 L_0 S_2 ?x749 L_3 A_1 ?x770) 0.0)) $x175044 (or $x661 (<= (+ L_3 ?x770 S_1 A_4 ?x738 L_2 ?x761) 0.0)) (or $x647 $x2775 $x2781) (or $x2775 $x3608 (not $x3705) $x11413) (or $x591 $x1431 $x129138) $x377161 (or $x661 $x1393 $x2781) (or $x661 (<= (+ ?x21657 ?x9004 ?x9003 ?x2038 ?x1381) 0.0)) (or $x39063 (not (<= 0.0 (+ S_4 ?x802 L_4)))) (or (<= (+ ?x2130 ?x2133 (* 3.0 S_2) ?x1755 ?x1301) 0.0) $x39063) (or (<= (+ L_1 ?x752 S_2 ?x802 L_4 ?x767 A_3) 0.0) $x39063) (or $x591 $x15180 $x132996) $x386356 (or $x647 (<= (+ L_1 ?x752 S_3 ?x1394 ?x1395 ?x1396 ?x1397) 0.0)) $x188411 (or $x647 (<= (+ L_1 ?x752 S_4 ?x1385 ?x1386 ?x1387 ?x1388) 0.0)) (or $x591 $x129138 $x132996) (or (<= (+ ?x789 L_0 S_2 ?x1778 ?x1779 ?x1380 ?x1382) 0.0) $x39063) (or (<= (+ S_4 ?x789 L_0 ?x1752 ?x1720 ?x1435 ?x1437) 0.0) $x39063) $x197688 (or $x661 $x1425) (or $x661 $x14913 $x21242) (or $x661 $x2819 $x21242) $x180572 $x139064 (or $x647 (<= (+ L_1 ?x752 S_2 ?x758 L_3 A_2 ?x770) 0.0)) (or $x613 $x647) $x160553 (or $x647 (<= (+ ?x789 L_0 S_2 ?x1394 ?x1395 ?x1396 ?x1397) 0.0)) (or $x661 (<= (+ ?x2131 ?x1400 ?x2112 ?x1774 ?x1776 ?x1372 ?x1333) 0.0) $x7201) (or $x661 $x2819 $x51982) (or $x661 (<= (+ ?x789 L_0 S_2 ?x2106 ?x1378 ?x2038 ?x1381) 0.0)) $x391597 (or $x7072 $x16046 $x39063) (or $x7072 $x15841 $x39063) (or $x613 $x39063 (not (<= (- 5.0) (+ ?x767 A_3 ?x802 L_4)))) $x177331 (or $x647 $x8657 $x40571 $x132995) (or $x647 $x1783 $x11413 $x132995) (or $x5717 $x39063 $x58370) (or $x7072 $x39063 $x58370) (or $x7259 $x39063 $x58370) (or $x39063 $x58370 $x127881) (or $x1376 (not $x4526)) (or $x661 (not $x6489) $x120236 $x130931) (or $x655 $x4526 $x66605) $x191462 (or $x16046 $x71878 $x127881) (or (<= (+ ?x2168 ?x2169 ?x4216 ?x802 L_4 ?x758 A_2) 0.0) $x6489 $x71878) (or $x661 $x2781 $x21242) (or $x661 $x2073 $x2775) (or $x647 $x1799 (<= (+ A_2 ?x758 ?x789 L_0 A_1 ?x770) 0.0)) (or (<= (+ ?x761 L_2 S_3 ?x802 L_4 ?x767 A_3) 0.0) $x71878) (or $x647 (<= (+ ?x789 L_0 S_3 ?x1385 ?x1386 ?x1387 ?x1388) 0.0)) (or $x647 $x1405) $x381262 (or $x647 $x1783 $x3705 $x11413) $x374391 (or $x16046 $x20796 $x71878) (or $x647 $x3055 $x66605 $x71011) (or $x661 $x2073 $x3010) $x372553 (or $x591 $x655 $x2159 $x9644 $x66605) (or $x647 (<= (+ S_4 ?x789 L_0 ?x2106 ?x1395 ?x2038 ?x1397) 0.0) $x3055) (or $x7259 $x16046 $x71878) (or $x5717 $x16046 $x71878) $x381972 (or (<= (+ ?x1364 ?x9004 ?x9003 ?x9002) 0.0) $x129633) (or $x15841 $x71878 $x127881) (or $x29489 $x71878 $x127881) $x380307 $x171290 $x165045 (or $x591 $x1805 $x2781 $x62648) (or $x20796 $x29489 $x71878) (or $x7259 $x29489 $x71878) $x158109 (or (<= (+ L_1 ?x752 S_3 ?x802 L_4 ?x758 A_2) 0.0) $x71878) (or (<= (+ ?x2168 ?x2169 ?x4259 ?x1755 ?x1735 ?x1385 ?x1387) 0.0) $x6489 $x71878) $x162104 (or $x6489 $x20796 $x71878) (or $x661 $x120236 (not (<= (+ A_2 ?x758 L_1 ?x752) 5.0))) $x164237 (or $x20796 $x58370 $x71878) $x163187 (or $x591 $x1431 $x2781 $x22222) $x162925 (or $x7259 $x15841 $x71878) (or $x15841 $x20796 $x71878) $x183407 $x374675 $x134552 (or $x71878 $x127881 $x129633) (or $x1731 $x71878) (or $x661 (<= (+ ?x789 L_0 S_1 ?x749 L_2 A_1 ?x761) 0.0)) (or $x591 $x129138 $x139050) (or $x591 $x28389 $x33314) $x161821 $x197370 (or $x591 $x21653 $x129633 $x132996) (or $x5717 $x6489 $x71878) (or $x6489 $x7259 $x71878) (or $x7072 $x29505 $x71878) (or $x5717 $x71878 $x129633) (or $x20796 $x71878 $x129633) (or $x591 $x5105 $x29489 $x71878 $x144093) (or $x6489 $x7072 $x71878) (or $x5717 $x29505 $x71878) (or $x591 $x11254 $x71878 $x122935) $x140660 $x148728 (or $x591 $x1431 $x11254 $x71878) (or $x661 $x32417 $x61025) (or $x661 $x14913 $x140339) (or $x653 $x66605 $x130359 (<= (+ ?x749 L_2 A_1 ?x761) (- 5.0))) $x378728 (or $x7259 $x29505 $x71878) (or $x591 $x5105 $x71878 $x129633 $x144093) (or $x591 $x1805 $x6426 $x15257 $x62798) (or $x661 (not $x6489) (not (<= 0.0 (+ S_4 ?x802 L_4))) $x132996) (or $x591 $x2817 $x5105 $x71878 $x144093) (or $x5717 $x29489 $x71878) (or $x7072 $x71878 $x129633) (or $x5717 $x15841 $x71878) (or $x661 (<= (+ ?x19066 ?x19067 ?x71394 L_2 ?x761 ?x72462) 0.0)) (or $x661 $x61074) $x388286 (or $x29505 $x71878 $x127881) $x149782 (or $x661 $x14913 $x39020) (or $x661 $x130871 (<= (+ ?x1400 ?x740 ?x1401 ?x761) (- 10.0))) $x383494 (or $x591 $x5105 $x58370 $x71878 $x144093) $x377420 $x381503 (or $x1738 $x71878 $x127881 $x132996) (or $x591 $x5105 $x6489 $x71878) $x115402 $x371952 $x377708 $x188757 (or $x591 $x5105 $x29505 $x71878 $x144093) (or $x591 $x1738 $x5105 $x71878 $x132996) (or $x1738 $x5717 $x71878 $x132996) (or $x661 (<= (+ L_3 ?x770 S_4 ?x749 L_2 A_1 ?x761) 0.0)) (or $x661 $x14913 $x139050) (or $x1738 $x7259 $x71878 $x132996) (or $x1738 $x7072 $x71878 $x132996) (or $x1738 $x20796 $x71878 $x132996) (or $x661 $x14913 $x33036) $x386532 $x385666 $x372961 $x376089 $x385769 $x385716 (or $x653 (not $x1425) $x66605 $x132033) (or $x647 $x130280 $x132995 $x134006) (or $x653 $x14399 $x66605 $x80146) (or (<= (+ ?x8962 ?x9003 ?x9002 ?x1401 L_3 ?x758 ?x770) 0.0) (not $x80146)) (or $x591 $x2775 $x129138 (not (<= 0.0 (+ S_4 ?x802 L_4)))) (or (<= (+ ?x4602 ?x5689 ?x5682 ?x1401 ?x802) 0.0) $x71878) (or (<= (+ ?x4602 ?x5689 ?x5682 ?x1401 ?x802 L_4 ?x767) 0.0) $x71878) $x389201 (or $x1351 $x71878 (<= (+ ?x749 L_3 A_1 ?x770) (- 10.0)) $x130359) (or $x591 $x2775 $x30797 $x31096 $x129633 $x132995) (or $x11118 (<= (+ ?x9947 ?x19067 ?x22530 L_2 ?x767 ?x761) 0.0) $x41015 $x41843) (or $x647 $x8657 $x19240 $x25782) $x391124 (or $x653 $x2073 $x66605 $x130359 $x132996) $x177066 $x382338 $x177596 (or $x65808 $x71878) (or (<= (+ ?x12431 ?x12434 ?x12435 ?x1401 ?x802 L_4 A_0) 0.0) $x71878) (or $x591 $x4265 $x6489 $x71878) (or $x591 $x1351 $x2775 $x129138) (or $x591 $x129138 $x140339) $x389878 (or (<= (+ ?x789 L_0 S_3 ?x802 L_4 ?x749 A_1) 0.0) $x71878) (or $x591 $x1251 $x1340 $x27462 $x30797 $x31096 $x129633) (or $x653 $x14399 $x47820 $x66605) $x191804 $x370429 (or $x591 $x1431 $x21844 $x30797 $x31096 $x129633) $x384472 (or $x2073 $x2758 $x71878 $x120236 $x130359) (or $x1351 $x71878 $x129822) (or $x14462 $x15563 $x71878) (or $x591 $x3010 $x129138 $x129822) $x388068 (or $x2817 $x34076 $x71878 (not $x135054)) $x375228 (or $x2817 $x27834 $x71878) (or $x2817 $x71878 $x133920 (<= (+ ?x14533 ?x19051 ?x69886 ?x69850) (- 5.0))) $x380110 $x381269 $x377790 $x162704 $x177338 (<= (+ ?x1401 S_0) 0.0) (<= (+ ?x789 L_0 S_0) 0.0) (<= (+ L_1 ?x752 S_1) 0.0) (<= (+ (* (- 4.0) S_4) (* 4.0 S_3)) 0.0) (<= (+ (* (- 3.0) S_2) (* 3.0 S_1)) 0.0) (<= (+ (* (- 3.0) S_3) (* 3.0 S_2)) 0.0) (<= (+ ?x761 L_2 S_2) 0.0) (<= (+ (* 4.0 S_3) ?x1261 ?x1374) 0.0) (<= (+ S_4 ?x802 L_4) 0.0))))))))))))))))))))))))))))))))))))))))))))))))))))))))))))))))))))))))))))))))))))))))))))))))))))))))))))))))))))))))))))))))))))))))))))))))))))))))))))))))))))))))))))))))))))))))))))))))))))))))))))))))))))))))))))))))))))))))))))))))))))))))))))))))))))))))))))))))))))))))))))))))))))))))))))))))))))))
(check-sat)
